--Link1--
%chk=molecule
#HF/6-31G* SCF=tight Test Pop=MK iop(6/33=2) iop(6/42=6) opt

remark line goes here

-2   1
 H   169.377000    22.603000  -283.781000
 C   168.403942    22.830541  -283.345703
 C   167.286942    22.188541  -284.204703
 C   166.844942    23.006542  -285.436703
 O   167.915942    23.544542  -286.127703
 P   167.694943    23.941542  -287.820703
 O   169.066943    24.453542  -288.171703
 C   168.428942    22.332541  -281.881703
 C   167.338615    22.552095  -280.951390
 O   168.261942    24.238542  -283.323703
 O   167.308943    22.615542  -288.432703
 O   166.591943    24.971542  -287.792703
 O   168.603238    20.944578  -281.938094
 H   169.321942    22.743541  -281.418703
 H   168.227942    24.505542  -284.239703
 O   167.743793    20.934768  -284.628189
 H   166.422942    22.021541  -283.574703
 H   166.258942    22.357542  -286.081703
 H   166.174942    23.800542  -285.099703
 H   168.624774    20.593162  -281.058974
 H   167.077938    20.518424  -285.157437
 H   167.589184    22.110883  -279.987820
 C   167.121296    23.976480  -280.788912
 O   166.173583    21.956024  -281.448782
 H   165.461486    22.099415  -280.841191
 C   166.030969    24.196034  -279.858599
 O   167.919132    24.890484  -281.487521
 O   165.821144    25.571303  -279.701723
 H   165.124740    23.732376  -280.245498
 H   166.281538    23.754822  -278.895028
 H   165.109048    25.714694  -279.094132

