%chk=S7P_linear
#HF/6-31G* Test Pop=MK iop(6/33=2) iop(6/42=6)

 S7P_ideal.pdb

-2  1
O          -4.85800        -0.43700         1.33300
P          -4.48600         0.07700        -0.14600
O          -4.70700        -1.01600        -1.11900
O          -5.41900         1.33200        -0.52900
O          -2.94100         0.52600        -0.18600
C          -1.86000        -0.38900         0.00600
C          -0.53100         0.36300        -0.09300
O          -0.43100         1.29700         0.98400
C           0.62700        -0.63400        -0.01300
O           0.52700        -1.56800        -1.09000
C           1.95500         0.11900        -0.11200
O           2.05600         1.05300         0.96500
C           3.11300        -0.87800        -0.03200
O           2.98800        -1.65900         1.15800
C           4.42000        -0.12900        -0.00600
O           5.03800        -0.02900         1.02700
C           4.95700         0.49500        -1.26900
O           6.19900         1.14400        -0.98900
H          -1.94400        -0.85000         0.99000
H          -1.89800        -1.16200        -0.76200
H          -0.48600         0.89700        -1.04300
H          -0.46400         0.89100         1.86100
H           0.58200        -1.16800         0.93600
H           0.56000        -1.16100        -1.96700
H           2.00100         0.65300        -1.06100
H           2.02200         0.64600         1.84200
H           3.08800        -1.53500        -0.90200
H           3.00300        -1.13900         1.97300
H           5.11200        -0.27900        -2.01900
H           4.24100         1.22700        -1.64400
H           6.60200         1.56900        -1.75800

