%chk=PEP.chk
#HF/6-31G* SCF=tight Test Pop=MK iop(6/33=2) iop(6/42=6) opt

PEP.pdb

-3  1
C           0.33400        -0.08300         1.96000
O           1.52400        -0.29200         1.83400
O          -0.13000         0.51500         3.07400
C          -0.60100        -0.48400         0.89400
C          -1.90700        -0.25400         1.03200
O          -0.13100        -1.08800        -0.22900
P           0.11000         0.07400        -1.31600
O           1.00700         1.10300        -0.74600
O           0.78600        -0.55500        -2.63500
O          -1.29900         0.74700        -1.70500
H          -2.60200        -0.62200         0.29100
H          -2.27100         0.30000         1.88400

