--Link1--
%chk=2PG_idealpdb_1OH.chk
#HF/6-31G* Test Pop=MK iop(6/33=2) iop(6/42=6)

16 atoms

-2   1
 C     1.685000     0.219000    -1.447000
 O     2.661000     0.082000    -0.411000
 C     0.297000    -0.090000    -0.883000
 O     0.000000     0.821000     0.175000
 P    -0.238000    -0.064000     1.498000
 O    -1.458060    -1.070275     1.255380
 C    -0.731000     0.054000    -1.975000
 O    -0.651000    -0.707000    -3.077000
 O    -1.627000     0.855000    -1.858000
 O     0.987000    -0.837000     1.800000
 O    -0.580000     0.904000     2.738000
 H     0.279000    -1.110000    -0.500000
 H     1.703000     1.239000    -1.830000
 H     1.913000    -0.476000    -2.255000
 H     3.519000     0.285000    -0.808000
 H    -1.597633    -1.590729     2.034133

