--Link1--
%chk=2PG_idealpdb.chk
#HF/6-31G* Test Pop=MK iop(6/33=2) iop(6/42=6)

15 atoms

-3   1
C          -0.73100         0.05400        -1.97500
C           0.29700        -0.09000        -0.88300
C           1.68500         0.21900        -1.44700
P          -0.23800        -0.06400         1.49800
O          -1.62700         0.85500        -1.85800
O          -0.65100        -0.70700        -3.07700
O           2.66100         0.08200        -0.41100
O           0.00000         0.82100         0.17500
O           0.98700        -0.83700         1.80000
O          -0.58000         0.90400         2.73800
O          -1.46500        -1.07600         1.25400
H           0.27900        -1.11000        -0.50000
H           1.70300         1.23900        -1.83000
H           1.91300        -0.47600        -2.25500
H           3.51900         0.28500        -0.80800

