%chk=Pi_rep
#HF/6-31G* SCF=tight Test Pop=MK iop(6/33=2) iop(6/42=6) opt

 H2PO4_representative.pdb

-1  1
P          11.37000        39.44400        13.13700
O          10.28300        39.97300        14.02800
O          10.97300        38.11200        12.54500
O          11.75700        40.43300        12.09700
O          12.60300        39.20000        14.02100
H          12.44400        40.09800        11.53300
H          13.29000        38.86500        13.45700

