%chk=Pi_rep
#HF/6-31G* SCF=tight Test Pop=MK iop(6/33=2) iop(6/42=6) opt

 Pi_representative.pdb

-2  1
P          13.65200       -11.04900        13.33100
O          14.70700       -11.75100        14.10900
O          14.15100        -9.74600        12.72300
O          12.38200       -10.86200        13.99400
O          13.40400       -11.79400        12.07300
H          12.73000       -11.34500        11.57600

