%chk=13DPG_H4.chk
#HF/6-31G* SCF=tight Test Pop=MK iop(6/33=2) iop(6/42=6) opt

13DPG.pdb

-4   1
O           3.83300         2.06500         0.39200
P           3.39200         0.57400        -0.02300
O           3.45300         0.43300        -1.49600
O           4.38800        -0.49100         0.65900
O           1.88700         0.29900         0.48000
C           1.32800        -0.86700         0.12200
O           1.95200        -1.65600        -0.54800
C          -0.07800        -1.19400         0.55700
O          -0.40300        -2.52600         0.15500
C          -1.05400        -0.21200        -0.09400
O          -2.37100        -0.44700         0.40700
P          -3.65300         0.40700        -0.06300
O          -4.98200        -0.21200         0.60200
O          -3.48000         1.93700         0.40700
O          -3.76800         0.35300        -1.53700
H          -0.15100        -1.11300         1.64100
H          -0.35900        -2.67100        -0.80000
H          -0.75200         0.80900         0.14000
H          -1.04600        -0.35400        -1.17500

